/* Objective function */
min: - 0.0054fpdi - 0.0054fpdo + 0.05apdi + 0.05apdo + 0.0002pi + 0.0002po - 0.5fsi - 0.5fso;

apdi = 0.0 hi + -0.0 li + 10.33452 ri + -0.00821 ci + -1.47378 si + 0.0 ti + 0.09457 fTempIi + 0.01014 ami + -116.44571;
asi = 0.0 hi + 0.0 li + 0.0 ri + -0.0 ci + -0.0 si + 0.0 ti + -0.0 fTempIi + 0.00011 ami + -0.01286;
aTempOi = 0.0 hi + -0.0 li + 0.30727 ri + -0.07675 ci + -0.041 si + 0.0 ti + 0.76609 fTempIi + -0.00034 ami + 6.83449;
fpdi = 0.0 hi + 0.0 li + 9.2637 ri + -17.74354 ci + -0.01612 si + 0.0 ti + -0.5131 fTempIi + 0.00013 ami + 262.65593;
fsi = 0.0 hi + 0.0 li + -0.0 ri + -0.072 ci + 0.0 si + 0.0 ti + -0.0 fTempIi + 0.0 ami + 2.022;
fTempOi = 0.0 hi + 0.0 li + -0.30196 ri + 0.07533 ci + 0.04014 si + 0.0 ti + 0.25672 fTempIi + -0.0003 ami + 9.49592;
pi = 0.0 hi + -0.0 li + 257.3125 ri + 2.745 ci + -24.5472 si + 0.0 ti + 0.0 fTempIi + 0.0 ami + 1130.209;

apdo = 0.0 ho + 0.0 lo + 12.49041 ro + 0.01483 co + -1.88372 so + 0.0 to + 0.13356 fTempIo + 0.01201 amo + -154.95051;
aso = 0.0 ho + 0.0 lo + -0.0 ro + -0.0 co + 0.0 so + 0.0 to + -0.0 fTempIo + 0.00011 amo + -0.01286;
aTempOo = 0.0 ho + 0.0 lo + -0.3169 ro + 0.09027 co + 0.05495 so + 0.0 to + 0.74891 fTempIo + 0.00037 amo + -0.48737;
fpdo = 0.0 ho + -0.0 lo + 10.28904 ro + -20.89842 co + 0.02429 so + -0.0 to + -0.58258 fTempIo + -0.00016 amo + 296.82039;
fso = 0.0 ho + -0.0 lo + 2e-05 ro + -0.07915 co + -0.0 so + -0.0 to + 3e-05 fTempIo + 0.0 amo + 2.12619;
fTempOo = 0.0 ho + 0.0 lo + 0.30981 ro + -0.08858 co + -0.05374 so + 0.0 to + 0.2652 fTempIo + 0.00033 amo + 12.50012;
po = 0.0 ho + 0.0 lo + 227.79444 ro + 2.74095 co + -22.79143 so + 0.0 to + -0.0 fTempIo + 0.0 amo + 712.74794;

/* Variable bounds */
aTempOi > 18.6;
1 =r6i + r8i + r10i + r12i + r14i;
ri =6r6i + 8r8i + 10r10i + 12r12i + 14r14i;
1 =s30i + s40i + s50i + s60i;
si =30s30i + 40s40i + 50s50i + 60s60i;
ti = 3;
apdi > 100;
apdi < 300;
asi > 0;
asi < 3;
aTempOi > 5;
aTempOi < 25;
fpdi > 100;
fpdi < 300;
fsi > 0;
fsi < 1.25;
fTempOi > 5;
fTempOi < 25;
pi > 0;
ri > 6;
ri < 14;
ci > 12;
ci < 60;
si > 25;
si < 60;
ti > 1;
ti < 3;
fTempIi > 5;
fTempIi < 25;

/* aTempOo < 11.4; */
1 =r6o + r8o + r10o + r12o + r14o;
ro =6r6o + 8r8o + 10r10o + 12r12o + 14r14o;
1 =s25o + s30o + s40o;
so =25s25o + 30s30o + 40s40o;
to = 1;
apdo > 100;
apdo < 300;
aso > 0;
aso < 3;
aTempOo > 5;
aTempOo < 25;
fpdo > 100;
fpdo < 300;
fso > 0;
fso < 1.25;
fTempOo > 5;
fTempOo < 25;
po > 0;
ro > 6;
ro < 14;
co > 11;
co < 60;
so > 25;
so < 60;
to > 1;
to < 3;
fTempIo > 5;
fTempIo < 25;
int hi,li,si,ti,ci,ri,ami;
int ho,lo,so,to,co,ro,amo;
bin s25i,s30i,s40i,s50i,s60i,r6i,r8i,r10i,r12i,r14i;
bin s25o,s30o,s40o,s50o,s60o,r6o,r8o,r10o,r12o,r14o;
